WARNING: for repeatability, setting FPU to use double precision
============================[ Problem Statistics ]=============================
|                                                                             |
|  Number of variables:         20396                                         |
|  Number of clauses:          176862                                         |
|  Parse time:                   0.04 s                                       |
|                                                                             |
c ============================[ Search Statistics ]==============================
c | Conflicts |          ORIGINAL         |          LEARNT          | Progress |
c |           |    Vars  Clauses Literals |    Limit  Clauses Lit/Cl |          |
c ===============================================================================
We had 74 decisions of which only 0 were on extended
We had 1651605 decisions of which only 0 were on extended
We had 3505331 decisions of which only 0 were on extended
We had 5021603 decisions of which only 0 were on extended
c Switched to VSIDS.
We had 6809685 decisions of which only 0.000748933 were on extended
We had 8831102 decisions of which only 0.000871918 were on extended
We had 8850295 decisions of which only 0.000870027 were on extended
We had 8872263 decisions of which only 0.000901687 were on extended
We had 8895093 decisions of which only 0.000899372 were on extended
We had 8914852 decisions of which only 0.000953465 were on extended
c Switched to LRB.
We had 8935985 decisions of which only 0.00117502 were on extended
We had 8958031 decisions of which only 0.00133958 were on extended
We had 8977226 decisions of which only 0.00163748 were on extended
We had 8998759 decisions of which only 0.00177802 were on extended
We had 9019465 decisions of which only 0.00247243 were on extended
We had 9040974 decisions of which only 0.00277625 were on extended
We had 9060594 decisions of which only 0.0033 were on extended
c Switched to VSIDS.
We had 9076159 decisions of which only 0.00338249 were on extended
We had 9090789 decisions of which only 0.00378405 were on extended
Window full
Continue
We had 9109742 decisions of which only 0.00434699 were on extended
We had 9127828 decisions of which only 0.00537915 were on extended
We had 9147708 decisions of which only 0.00597964 were on extended
We had 9164863 decisions of which only 0.00676497 were on extended
We had 9178155 decisions of which only 0.00689681 were on extended
c Switched to LRB.
We had 9195459 decisions of which only 0.0073297 were on extended
We had 9211518 decisions of which only 0.00767517 were on extended
We had 9230813 decisions of which only 0.00826579 were on extended
We had 9250062 decisions of which only 0.00919994 were on extended
We had 9271167 decisions of which only 0.0101821 were on extended
Window full
Continue
We had 9289777 decisions of which only 0.0110552 were on extended
c Switched to VSIDS.
We had 9307433 decisions of which only 0.0122913 were on extended
We had 9322915 decisions of which only 0.012539 were on extended
We had 9339970 decisions of which only 0.0132013 were on extended
We had 9354806 decisions of which only 0.013469 were on extended
We had 9371983 decisions of which only 0.0141059 were on extended
We had 9390432 decisions of which only 0.014387 were on extended
We had 9406928 decisions of which only 0.0165304 were on extended
We had 9421443 decisions of which only 0.0169507 were on extended
We had 9437448 decisions of which only 0.0177378 were on extended
c Switched to LRB.
Window full
Continue
We had 9454885 decisions of which only 0.0191753 were on extended
We had 9472548 decisions of which only 0.0210503 were on extended
We had 9492071 decisions of which only 0.0227032 were on extended
We had 9509443 decisions of which only 0.0240077 were on extended
We had 9524321 decisions of which only 0.0250307 were on extended
We had 9540406 decisions of which only 0.0286047 were on extended
We had 9555505 decisions of which only 0.030799 were on extended
We had 9570302 decisions of which only 0.0345444 were on extended
c Switched to VSIDS.
We had 9585623 decisions of which only 0.0374832 were on extended
We had 9600924 decisions of which only 0.0401316 were on extended
Window full
Continue
We had 9616176 decisions of which only 0.0425325 were on extended
We had 9633017 decisions of which only 0.0455517 were on extended
We had 9648249 decisions of which only 0.048216 were on extended
We had 9664524 decisions of which only 0.051301 were on extended
We had 9681047 decisions of which only 0.0542503 were on extended
We had 9697748 decisions of which only 0.0571988 were on extended
We had 9715445 decisions of which only 0.0597708 were on extended
We had 9728931 decisions of which only 0.0608494 were on extended
c Switched to LRB.
We had 9749460 decisions of which only 0.0666191 were on extended
We had 9767781 decisions of which only 0.0701695 were on extended
Window full
Continue
We had 9783176 decisions of which only 0.0734526 were on extended
We had 9800632 decisions of which only 0.0775766 were on extended
We had 9815466 decisions of which only 0.0799045 were on extended
We had 9835554 decisions of which only 0.0835743 were on extended
We had 9852119 decisions of which only 0.0865296 were on extended
We had 9869436 decisions of which only 0.0906333 were on extended
We had 9885632 decisions of which only 0.0958968 were on extended
c Switched to VSIDS.
We had 9901760 decisions of which only 0.101538 were on extended
We had 9917608 decisions of which only 0.103946 were on extended
We had 9934589 decisions of which only 0.10853 were on extended
Window full
Continue
We had 9951427 decisions of which only 0.113481 were on extended
We had 9969229 decisions of which only 0.1201 were on extended
We had 9986830 decisions of which only 0.125886 were on extended
We had 10001714 decisions of which only 0.131717 were on extended
We had 10016947 decisions of which only 0.136549 were on extended
We had 10034359 decisions of which only 0.141633 were on extended
We had 10049940 decisions of which only 0.147155 were on extended
c Switched to LRB.
We had 10065630 decisions of which only 0.151506 were on extended
We had 10080650 decisions of which only 0.15256 were on extended
We had 10097224 decisions of which only 0.159935 were on extended
Window full
Continue
We had 10113728 decisions of which only 0.16357 were on extended
We had 10131701 decisions of which only 0.168757 were on extended
We had 10146272 decisions of which only 0.175986 were on extended
We had 10161501 decisions of which only 0.181587 were on extended
We had 10177180 decisions of which only 0.18511 were on extended
We had 10194868 decisions of which only 0.191694 were on extended
We had 10211421 decisions of which only 0.201304 were on extended
We had 10225768 decisions of which only 0.209295 were on extended
c Switched to VSIDS.
We had 10239789 decisions of which only 0.214184 were on extended
We had 10256748 decisions of which only 0.220723 were on extended
Window full
Continue
We had 10273423 decisions of which only 0.226273 were on extended
We had 10289122 decisions of which only 0.233305 were on extended
We had 10306224 decisions of which only 0.243106 were on extended
We had 10323564 decisions of which only 0.251599 were on extended
We had 10342014 decisions of which only 0.263034 were on extended
We had 10357363 decisions of which only 0.270387 were on extended
We had 10373377 decisions of which only 0.279494 were on extended
We had 10388707 decisions of which only 0.289892 were on extended
We had 10404804 decisions of which only 0.2989 were on extended
We had 10420404 decisions of which only 0.308347 were on extended
c Switched to LRB.
Window full
Continue
We had 10436915 decisions of which only 0.317105 were on extended
We had 10451171 decisions of which only 0.319821 were on extended
We had 10465146 decisions of which only 0.324678 were on extended
We had 10479490 decisions of which only 0.330111 were on extended
We had 10493308 decisions of which only 0.337015 were on extended
We had 10507256 decisions of which only 0.345942 were on extended
We had 10520898 decisions of which only 0.35534 were on extended
We had 10534491 decisions of which only 0.362372 were on extended
We had 10548481 decisions of which only 0.378017 were on extended
We had 10562478 decisions of which only 0.397331 were on extended
Window full
Continue
We had 10576438 decisions of which only 0.410195 were on extended
We had 10590042 decisions of which only 0.425211 were on extended
We had 10603218 decisions of which only 0.438876 were on extended
c Switched to VSIDS.
We had 10618513 decisions of which only 0.450694 were on extended
We had 10632549 decisions of which only 0.456241 were on extended
We had 10648150 decisions of which only 0.468307 were on extended
We had 10663522 decisions of which only 0.478153 were on extended
We had 10677688 decisions of which only 0.49078 were on extended
We had 10694582 decisions of which only 0.498523 were on extended
We had 10711345 decisions of which only 0.510804 were on extended
Window full
Continue
We had 10728169 decisions of which only 0.518439 were on extended
We had 10743203 decisions of which only 0.528455 were on extended
We had 10757920 decisions of which only 0.535085 were on extended
We had 10773210 decisions of which only 0.543719 were on extended
We had 10789076 decisions of which only 0.552401 were on extended
We had 10804239 decisions of which only 0.561289 were on extended
We had 10819138 decisions of which only 0.573188 were on extended
We had 10834148 decisions of which only 0.580784 were on extended
We had 10850067 decisions of which only 0.589794 were on extended
c Switched to LRB.
We had 10868218 decisions of which only 0.59732 were on extended
Window full
Continue
We had 10883097 decisions of which only 0.601015 were on extended
We had 10899532 decisions of which only 0.614586 were on extended
We had 10914414 decisions of which only 0.628582 were on extended
We had 10927766 decisions of which only 0.634631 were on extended
We had 10941777 decisions of which only 0.642044 were on extended
We had 10958670 decisions of which only 0.649194 were on extended
We had 10974297 decisions of which only 0.66273 were on extended
We had 10990571 decisions of which only 0.669301 were on extended
We had 11005162 decisions of which only 0.674802 were on extended
We had 11021456 decisions of which only 0.684583 were on extended
Window full
Continue
We had 11035971 decisions of which only 0.699023 were on extended
We had 11050194 decisions of which only 0.712521 were on extended
We had 11066118 decisions of which only 0.723153 were on extended
We had 11081385 decisions of which only 0.726768 were on extended
We had 11094879 decisions of which only 0.73159 were on extended
c Switched to VSIDS.
We had 11109764 decisions of which only 0.739809 were on extended
We had 11124507 decisions of which only 0.75384 were on extended
We had 11141376 decisions of which only 0.763469 were on extended
We had 11156828 decisions of which only 0.773186 were on extended
We had 11171785 decisions of which only 0.784091 were on extended
Window full
Continue
We had 11185897 decisions of which only 0.790218 were on extended
We had 11200868 decisions of which only 0.799358 were on extended
We had 11216671 decisions of which only 0.811266 were on extended
We had 11233109 decisions of which only 0.823423 were on extended
We had 11249157 decisions of which only 0.838445 were on extended
We had 11264696 decisions of which only 0.847018 were on extended
We had 11280585 decisions of which only 0.863031 were on extended
We had 11295765 decisions of which only 0.877789 were on extended
We had 11309885 decisions of which only 0.894403 were on extended
We had 11325824 decisions of which only 0.909117 were on extended
Window full
Continue
We had 11341974 decisions of which only 0.926505 were on extended
c Switched to LRB.
We had 11358819 decisions of which only 0.942413 were on extended
We had 11373326 decisions of which only 0.962084 were on extended
We had 11387512 decisions of which only 0.975771 were on extended
We had 11402432 decisions of which only 0.992832 were on extended
We had 11416005 decisions of which only 1.00704 were on extended
We had 11430730 decisions of which only 1.01566 were on extended
We had 11444582 decisions of which only 1.02673 were on extended
We had 11459691 decisions of which only 1.04117 were on extended
We had 11475650 decisions of which only 1.05035 were on extended
Window full
Continue
We had 11492109 decisions of which only 1.06958 were on extended
We had 11506404 decisions of which only 1.08837 were on extended
We had 11520246 decisions of which only 1.10007 were on extended
We had 11535478 decisions of which only 1.10568 were on extended
We had 11550602 decisions of which only 1.11937 were on extended
We had 11565640 decisions of which only 1.13166 were on extended
We had 11581882 decisions of which only 1.14266 were on extended
We had 11597385 decisions of which only 1.15771 were on extended
We had 11611974 decisions of which only 1.17179 were on extended
We had 11628450 decisions of which only 1.18372 were on extended
c Switched to VSIDS.
Window full
Continue
We had 11646035 decisions of which only 1.19982 were on extended
We had 11661717 decisions of which only 1.21535 were on extended
We had 11676968 decisions of which only 1.23255 were on extended
We had 11692421 decisions of which only 1.24713 were on extended
We had 11707284 decisions of which only 1.25728 were on extended
We had 11722719 decisions of which only 1.2695 were on extended
We had 11737860 decisions of which only 1.28402 were on extended
We had 11752671 decisions of which only 1.29848 were on extended
We had 11769352 decisions of which only 1.31248 were on extended
We had 11783817 decisions of which only 1.32768 were on extended
Window full
Continue
We had 11798821 decisions of which only 1.33911 were on extended
We had 11813816 decisions of which only 1.3556 were on extended
We had 11831071 decisions of which only 1.36927 were on extended
We had 11847207 decisions of which only 1.38542 were on extended
We had 11862688 decisions of which only 1.40239 were on extended
c ===============================================================================
restarts                  : 3567
conflicts                 : 1937554        (2538 /sec)
decisions                 : 11881142       (0.00 % random) (15565 /sec)
propagations              : 1342367554     (1758587 /sec)
conflict literals         : 41286974       (33.07 % deleted)

conflicts w/ DIP found    : 1404031        (72.46 % of conflicts)
conflicts w/ dangerous DIP: 0              (0.00 % of conflicts)
conflicts w/ DIP-learning : 10420          (0.54 % of conflicts)
decisions on ext vars     : 167890         (1.41 % of decisions)
total ext vars            : 2089        
tried delete ext vars     : 1           
deleted ext vars          : 1           
max ext vars              : 2088        

Memory used               : 238.00 MB
CPU time                  : 763.322 s
DIP computation time      : 17.0416 s (2.23 % of total time)
ER_sel time               : 1.81626 s
ER_add time               : 0.009252 s
ER_delC time              : 0 s
ER_delV time              : 0.001847 s
ER_sub time               : 2.78153 s
ER_stat time              : 0 s

SATISFIABLE
